NAME: fr_cities
TYPE: TSP
COMMENT: 119 cities in France ['Paris', 'Marseille', 'Lyon', 'Toulouse', 'Nice', 'Nantes', 'Montpellier', 'Strasbourg', 'Bordeaux', 'Lille', 'Rennes', 'Toulon', 'Reims', 'Saint-Étienne', 'Le Havre', 'Dijon', 'Grenoble', 'Angers', 'Villeurbanne', 'Saint-Denis', 'Nîmes', 'Aix-en-Provence', 'Clermont-Ferrand', 'Le Mans', 'Brest', 'Tours', 'Amiens', 'Annecy', 'Limoges', 'Metz', 'Boulogne-Billancourt', 'Perpignan', 'Besançon', 'Orléans', 'Rouen', 'Saint-Denis', 'Montreuil', 'Caen', 'Argenteuil', 'Mulhouse', 'Nancy', 'Tourcoing', 'Roubaix', 'Nanterre', 'Vitry-sur-Seine', 'Créteil', 'Avignon', 'Poitiers', 'Aubervilliers', 'Asnières-sur-Seine', 'Colombes', 'Dunkerque', 'Aulnay-sous-Bois', 'Versailles', 'Courbevoie', 'Béziers', 'La Rochelle', 'Rueil-Malmaison', 'Cherbourg-en-Cotentin', 'Champigny-sur-Marne', 'Pau', 'Mérignac', 'Saint-Maur-des-Fossés', 'Antibes', 'Ajaccio', 'Cannes', 'Saint-Nazaire', 'Drancy', 'Noisy-le-Grand', 'Issy-les-Moulineaux', 'Cergy', 'Levallois-Perret', 'Colmar', 'Calais', 'Pessac', 'Vénissieux', 'Évry-Courcouronnes', 'Clichy', 'Valence', 'Ivry-sur-Seine', 'Bourges', 'Quimper', 'Antony', 'Troyes', 'La Seyne-sur-Mer', "Villeneuve-d'Ascq", 'Montauban', 'Pantin', 'Chambéry', 'Niort', 'Neuilly-sur-Seine', 'Sarcelles', 'Le Blanc-Mesnil', 'Maisons-Alfort', 'Lorient', 'Villejuif', 'Fréjus', 'Beauvais', 'Narbonne', 'Meaux', 'Hyères', 'Bobigny', 'La Roche-sur-Yon', 'Clamart', 'Vannes', 'Chelles', 'Cholet', 'Épinay-sur-Seine', 'Saint-Ouen-sur-Seine', 'Saint-Quentin', 'Bondy', 'Bayonne', 'Corbeil-Essonnes', 'Cagnes-sur-Mer', 'Vaulx-en-Velin', 'Sevran', 'Fontenay-sous-Bois', 'Sartrouville', 'Massy', 'Arles']
DIMENSION: 119
EDGE_WEIGHT_TYPE : EUC_2D
NODE_COORD_SECTION
1 492.29 883.05
2 549.34 225.16
3 578.60 501.15
4 252.38 344.99
5 707.00 233.70
6 160.41 802.16
7 441.19 290.81
8 868.26 750.62
9 144.20 528.05
10 596.22 1058.05
11 183.98 897.65
12 589.19 196.65
13 622.67 890.96
14 534.56 474.60
15 360.48 999.57
16 637.93 664.67
17 629.04 421.11
18 239.94 803.21
19 582.70 500.86
20 485.40 305.34
21 558.40 250.38
22 450.63 539.35
23 311.69 838.96
24 0.00 1001.46
25 326.51 765.15
26 521.47 995.47
27 678.85 489.75
28 314.25 588.67
29 770.15 835.48
30 483.73 883.32
31 337.04 214.78
32 707.72 638.81
33 429.92 788.86
34 424.01 972.19
35 495.12 890.68
36 499.21 881.67
37 314.37 978.40
38 487.54 895.40
39 815.87 668.96
40 757.55 790.74
41 606.60 1065.79
42 607.10 1061.37
43 483.39 890.28
44 493.03 874.82
45 497.18 873.11
46 526.28 304.67
47 274.10 686.96
48 496.29 888.23
49 489.67 890.58
50 487.03 892.19
51 560.78 1114.80
52 505.01 889.56
53 474.15 882.28
54 486.89 889.45
55 383.53 276.61
56 147.49 680.51
57 480.42 888.04
58 244.40 1055.52
59 502.58 875.32
60 105.99 360.56
61 135.24 528.19
62 500.40 873.89
63 693.55 222.78
64 745.78 0.00
65 684.67 220.92
66 112.13 825.30
67 500.92 888.12
68 506.48 876.36
69 485.06 881.41
70 477.15 908.91
71 488.96 888.47
72 829.23 707.05
73 527.19 1115.60
74 134.24 523.83
75 580.26 493.81
76 491.21 857.03
77 490.58 889.03
78 560.40 409.27
79 493.41 877.61
80 438.89 692.24
81 11.86 948.63
82 485.14 872.79
83 596.99 787.94
84 583.02 192.68
85 603.41 1055.96
86 261.43 391.78
87 497.60 886.22
88 654.21 460.67
89 205.12 680.08
90 487.17 887.85
91 498.65 896.58
92 502.58 889.59
93 496.69 875.81
94 51.48 903.84
95 490.80 876.07
96 663.76 216.72
97 492.44 950.38
98 361.35 261.87
99 533.86 882.27
100 608.38 187.85
101 500.02 886.65
102 149.38 739.51
103 483.53 878.62
104 91.39 878.05
105 510.32 880.78
106 201.30 765.72
107 492.78 894.29
108 492.66 889.10
109 587.77 969.61
110 502.98 885.06
111 27.05 408.20
112 492.42 853.65
113 699.36 230.97
114 585.98 501.72
115 507.45 888.02
116 500.65 879.84
117 482.57 895.63
118 482.74 870.96
119 501.04 266.75
